p cnf 20 24
-4 15 -16 0
1 8 -15 0
-11 12 -16 0
-3 -9 12 0
-8 13 14 0
-8 10 -13 0
-10 17 20 0
-2 7 10 0
-1 -5 -17 0
10 12 -17 0
3 6 -17 0
3 8 10 0
-3 -10 -13 0
1 3 -5 0
4 11 16 0
-1 13 -16 0
-4 7 -19 0
-6 -8 -14 0
-10 -16 20 0
-4 -15 18 0
3 7 -11 0
2 9 -11 0
-3 -11 -20 0
7 -10 -17 0
